50 8
793 42
191 278
120 807
575 505
551 291
840 83
536 407
803 512
690 758
99 603
666 769
813 688
856 159
712 908
843 305
219 594
133 221
799 526
192 758
44 485
601 807
751 638
471 199
624 596
140 553
352 764
834 633
325 833
139 299
736 137
829 308
814 728
353 82
773 200
752 625
828 519
395 872
756 812
188 822
322 749
220 644
169 309
332 26
36 586
395 843
136 422
859 313
690 412
905 564
713 770
